(set-logic QF_S)
(declare-fun var0 () String)
(declare-fun var1 () String)
(declare-fun var2 () String)
(declare-fun var3 () String)
(declare-fun var4 () String)
(declare-fun var5 () String)
(declare-fun var6 () String)
(declare-fun var7 () String)
(declare-fun var8 () String)
(declare-fun var9 () String)
(declare-fun var10 () String)
(declare-fun var11 () String)
(declare-fun var12 () String)
(declare-fun var13 () String)
(declare-fun var14 () String)
(declare-fun var15 () String)
(declare-fun var16 () String)
(declare-fun var17 () String)
(declare-fun var18 () String)
(declare-fun var19 () String)
(declare-fun var20 () String)
(declare-fun var21 () String)
(declare-fun var22 () String)
(declare-fun var23 () String)
(declare-fun var24 () String)
(declare-fun var25 () String)
(declare-fun var26 () String)
(declare-fun var27 () String)
(declare-fun var28 () String)
(declare-fun var29 () String)
(declare-fun var30 () String)
(declare-fun var31 () String)
(declare-fun var32 () String)
(declare-fun var33 () String)
(declare-fun var34 () String)
(declare-fun var35 () String)
(declare-fun var36 () String)
(declare-fun var37 () String)
(declare-fun var38 () String)
(declare-fun var39 () String)
(declare-fun var40 () String)
(declare-fun var41 () String)
(declare-fun var42 () String)
(declare-fun var43 () String)
(declare-fun var44 () String)
(declare-fun var45 () String)
(declare-fun var46 () String)
(declare-fun var47 () String)
(declare-fun var48 () String)
(declare-fun var49 () String)
(declare-fun var50 () String)
(declare-fun var51 () String)
(declare-fun var52 () String)
(declare-fun var53 () String)
(declare-fun var54 () String)
(declare-fun var55 () String)
(declare-fun var56 () String)
(declare-fun var57 () String)
(declare-fun var58 () String)
(declare-fun var59 () String)
(declare-fun var60 () String)
(assert (= var0 (Concat var1 var2)))
(assert (= var2 (Concat var3 var4)))
(assert (= var4 (Concat var5 var6)))
(assert (= var6 (Concat var7 var8)))
(assert (= var8 (Concat var9 var10)))
(assert (= var10 (Concat var11 var12)))
(assert (= var12 (Concat var13 var14)))
(assert (= var14 (Concat var15 var16)))
(assert (= var16 (Concat var17 var18)))
(assert (= var18 (Concat var19 var20)))
(assert (= var20 (Concat var21 var22)))
(assert (= var22 (Concat var23 var24)))
(assert (= var24 (Concat var25 var26)))
(assert (= var26 (Concat var27 var28)))
(assert (= var28 (Concat var29 var30)))
(assert (= var30 (Concat var31 var32)))
(assert (= var32 (Concat var33 var34)))
(assert (= var34 (Concat var35 var36)))
(assert (= var36 (Concat var37 var38)))
(assert (= var38 (Concat var39 var40)))
(assert (= var40 (Concat var41 var42)))
(assert (= var42 (Concat var43 var44)))
(assert (= var44 (Concat var45 var46)))
(assert (= var46 (Concat var47 var48)))
(assert (= var48 (Concat var49 var50)))
(assert (= var50 (Concat var51 var52)))
(assert (= var52 (Concat var53 var54)))
(assert (= var54 (Concat var55 var56)))
(assert (= var56 (Concat var57 var58)))
(assert (= var58 (Concat var59 var60)))
(assert (= var0 "solution"))
(assert (= "U" (CharAt var41 520)))
(assert (= "l" (CharAt var46 98)))
(assert (= "'" (CharAt var26 168)))
(assert (= "z" (CharAt var1 718)))
(assert (= "^" (CharAt var39 391)))
(assert (= "Z" (CharAt var53 250)))
(assert (= "1" (CharAt var17 531)))
(assert (= "z" (CharAt var8 380)))
(assert (= "f" (CharAt var25 238)))
(assert (= "b" (CharAt var1 304)))
(assert (= "e" (CharAt var26 719)))
(assert (= "M" (CharAt var43 509)))
(assert (= "W" (CharAt var54 647)))
(assert (= "H" (CharAt var45 403)))
(assert (= "?" (CharAt var20 967)))
(assert (= "z" (CharAt var57 539)))
(assert (= "B" (CharAt var31 455)))
(assert (= "k" (CharAt var27 195)))
(assert (= "x" (CharAt var29 77)))
(assert (= "V" (CharAt var2 587)))
(assert (= "P" (CharAt var22 369)))
(assert (= "3" (CharAt var29 806)))
(assert (= "1" (CharAt var5 556)))
(assert (= "W" (CharAt var57 745)))
(assert (= "~" (CharAt var38 839)))
(assert (= "&" (CharAt var40 159)))
(assert (= "," (CharAt var27 622)))
(assert (= "m" (CharAt var43 577)))
(assert (= "J" (CharAt var57 870)))
(assert (= "D" (CharAt var24 993)))
(assert (= "P" (CharAt var23 594)))
(assert (= "m" (CharAt var43 607)))
(assert (= "_" (CharAt var42 26)))
(assert (= "1" (CharAt var51 769)))
(assert (= "e" (CharAt var50 982)))
(assert (= "s" (CharAt var21 199)))
(assert (= "l" (CharAt var21 440)))
(assert (= "5" (CharAt var14 136)))
(assert (= "l" (CharAt var12 608)))
(assert (= "a" (CharAt var6 925)))
(assert (= "D" (CharAt var40 633)))
(assert (= "!" (CharAt var20 632)))
(assert (= "X" (CharAt var16 605)))
(assert (= "t" (CharAt var37 791)))
(assert (= "(" (CharAt var30 125)))
(assert (= "1" (CharAt var40 176)))
(assert (= "e" (CharAt var4 352)))
(assert (= "k" (CharAt var44 800)))
(assert (= "p" (CharAt var34 836)))
(assert (= "0" (CharAt var59 542)))
(assert (= "f" (CharAt var28 509)))
(assert (= "Q" (CharAt var40 33)))
(assert (= "S" (CharAt var33 778)))
(assert (= "$" (CharAt var26 394)))
(assert (= "k" (CharAt var2 768)))
(assert (= "!" (CharAt var13 256)))
(assert (= "3" (CharAt var38 7)))
(assert (= "q" (CharAt var44 903)))
(assert (= "~" (CharAt var31 187)))
(assert (= "}" (CharAt var2 289)))
(assert (= "Y" (CharAt var54 679)))
(assert (= "Z" (CharAt var32 858)))
(assert (= "H" (CharAt var49 588)))
(assert (= "\"" (CharAt var29 301)))
(assert (= "8" (CharAt var56 653)))
(assert (= "I" (CharAt var20 140)))
(assert (= "L" (CharAt var14 842)))
(assert (= "l" (CharAt var58 676)))
(assert (= "}" (CharAt var45 156)))
(assert (= "|" (CharAt var14 497)))
(assert (= "1" (CharAt var41 816)))
(assert (= "y" (CharAt var15 806)))
(assert (= "*" (CharAt var41 734)))
(assert (= "j" (CharAt var33 498)))
(assert (= "g" (CharAt var13 767)))
(assert (= "&" (CharAt var24 27)))
(assert (= "g" (CharAt var30 566)))
(assert (= "e" (CharAt var17 726)))
(assert (= "\"" (CharAt var0 933)))
(assert (= "Z" (CharAt var55 612)))
(assert (= "V" (CharAt var43 953)))
(assert (= "q" (CharAt var22 538)))
(assert (= "t" (CharAt var52 703)))
(assert (= "{" (CharAt var10 187)))
(assert (= "S" (CharAt var14 262)))
(assert (= "B" (CharAt var18 15)))
(assert (= "w" (CharAt var33 876)))
(assert (= "a" (CharAt var2 707)))
(assert (= "," (CharAt var2 792)))
(assert (= "@" (CharAt var19 640)))
(assert (= "\\" (CharAt var5 662)))
(assert (= "{" (CharAt var56 605)))
(assert (= "%" (CharAt var10 246)))
(assert (= "k" (CharAt var56 523)))
(assert (= "L" (CharAt var39 777)))
(assert (= "|" (CharAt var55 179)))
(assert (= ";" (CharAt var14 52)))
(assert (= "\"" (CharAt var12 470)))
(assert (= "(" (CharAt var15 933)))
(assert (= "L" (CharAt var20 14)))
(assert (= "h" (CharAt var32 535)))
(assert (= "w" (CharAt var15 607)))
(assert (= "N" (CharAt var40 569)))
(assert (= "'" (CharAt var15 718)))
(assert (= "E" (CharAt var41 443)))
(assert (= "<" (CharAt var48 194)))
(assert (= "@" (CharAt var0 423)))
(assert (= "H" (CharAt var9 392)))
(assert (= "k" (CharAt var1 86)))
(assert (= "m" (CharAt var56 659)))
(assert (= "V" (CharAt var43 262)))
(assert (= "C" (CharAt var18 500)))
(assert (= "z" (CharAt var35 262)))
(assert (= "_" (CharAt var28 758)))
(assert (= "a" (CharAt var49 179)))
(assert (= "|" (CharAt var15 561)))
(assert (= "b" (CharAt var16 523)))
(assert (= "]" (CharAt var44 776)))
(assert (= "|" (CharAt var59 819)))
(assert (= "q" (CharAt var30 66)))
(assert (= ")" (CharAt var24 118)))
(assert (= ":" (CharAt var60 116)))
(assert (= "}" (CharAt var29 460)))
(assert (= "@" (CharAt var38 90)))
(assert (= "7" (CharAt var8 954)))
(assert (= "\\" (CharAt var14 166)))
(assert (= "Z" (CharAt var5 728)))
(assert (= "B" (CharAt var14 924)))
(assert (= "~" (CharAt var35 142)))
(assert (= "h" (CharAt var38 551)))
(assert (= "i" (CharAt var53 579)))
(assert (= "w" (CharAt var29 226)))
(assert (= ";" (CharAt var45 956)))
(assert (= "?" (CharAt var11 432)))
(assert (= "b" (CharAt var60 514)))
(assert (= "R" (CharAt var50 994)))
(assert (= "o" (CharAt var44 575)))
(assert (= "_" (CharAt var18 91)))
(assert (= "[" (CharAt var38 320)))
(assert (= "5" (CharAt var47 490)))
(assert (= "x" (CharAt var49 392)))
(assert (= "N" (CharAt var12 211)))
(assert (= "x" (CharAt var14 456)))
(assert (= "O" (CharAt var43 899)))
(assert (= "h" (CharAt var16 542)))
(assert (= "T" (CharAt var20 275)))
(assert (= "y" (CharAt var29 817)))
(assert (= "&" (CharAt var6 807)))
(assert (= "}" (CharAt var54 305)))
(assert (= "R" (CharAt var36 201)))
(assert (= "@" (CharAt var39 115)))
(assert (= "]" (CharAt var24 538)))
(assert (= "[" (CharAt var40 769)))
(assert (= "[" (CharAt var8 497)))
(assert (= "5" (CharAt var37 74)))
(assert (= "5" (CharAt var22 215)))
(assert (= "$" (CharAt var26 524)))
(assert (= "[" (CharAt var37 112)))
(assert (= "9" (CharAt var12 454)))
(assert (= "6" (CharAt var9 530)))
(assert (= "H" (CharAt var22 563)))
(assert (= "k" (CharAt var32 490)))
(assert (= "P" (CharAt var4 953)))
(assert (= "T" (CharAt var33 216)))
(assert (= "." (CharAt var56 724)))
(assert (= "T" (CharAt var39 270)))
(assert (= "V" (CharAt var58 34)))
(assert (= "=" (CharAt var5 175)))
(assert (= "m" (CharAt var26 241)))
(assert (= "p" (CharAt var47 954)))
(assert (= "S" (CharAt var27 624)))
(assert (= "i" (CharAt var24 532)))
(assert (= "I" (CharAt var58 25)))
(assert (= "G" (CharAt var7 473)))
(assert (= "|" (CharAt var54 987)))
(assert (= "|" (CharAt var40 613)))
(assert (= "N" (CharAt var7 595)))
(assert (= "R" (CharAt var56 291)))
(assert (= "T" (CharAt var51 982)))
(assert (= "P" (CharAt var37 684)))
(assert (= "W" (CharAt var4 415)))
(assert (= "*" (CharAt var0 465)))
(assert (= ":" (CharAt var0 322)))
(assert (= "v" (CharAt var29 761)))
(assert (= "*" (CharAt var19 422)))
(assert (= "L" (CharAt var20 336)))
(assert (= "y" (CharAt var59 634)))
(assert (= "l" (CharAt var43 559)))
(assert (= "$" (CharAt var3 844)))
(assert (= "u" (CharAt var29 471)))
(assert (= "U" (CharAt var24 902)))
(assert (= "H" (CharAt var29 670)))
(assert (= "," (CharAt var15 979)))
(assert (= "=" (CharAt var5 109)))
(assert (= "K" (CharAt var34 999)))
(assert (= "." (CharAt var27 620)))
(assert (= "g" (CharAt var48 231)))
(assert (= "(" (CharAt var30 272)))
(assert (= "\"" (CharAt var29 894)))
(assert (= ":" (CharAt var2 284)))
(assert (= "u" (CharAt var53 629)))
(assert (= "V" (CharAt var7 728)))
(assert (= "f" (CharAt var32 452)))
(assert (= "5" (CharAt var4 97)))
(assert (= "^" (CharAt var59 376)))
(assert (= "|" (CharAt var50 626)))
(assert (= "9" (CharAt var8 488)))
(assert (= "/" (CharAt var35 56)))
(assert (= "2" (CharAt var30 255)))
(assert (= "$" (CharAt var55 373)))
(assert (= "B" (CharAt var41 373)))
(assert (= "%" (CharAt var6 974)))
(assert (= "A" (CharAt var2 677)))
(assert (= "M" (CharAt var33 882)))
(assert (= "E" (CharAt var53 628)))
(assert (= "^" (CharAt var23 493)))
(assert (= "n" (CharAt var24 988)))
(assert (= "k" (CharAt var35 669)))
(assert (= "/" (CharAt var29 236)))
(assert (= "v" (CharAt var2 8)))
(assert (= "N" (CharAt var1 188)))
(assert (= "%" (CharAt var42 181)))
(assert (= "P" (CharAt var1 770)))
(assert (= "s" (CharAt var46 300)))
(assert (= "E" (CharAt var19 408)))
(assert (= "]" (CharAt var47 829)))
(assert (= "$" (CharAt var36 482)))
(assert (= "Y" (CharAt var19 241)))
(assert (= "3" (CharAt var0 595)))
(assert (= "i" (CharAt var19 726)))
(assert (= "$" (CharAt var60 89)))
(assert (= "\\" (CharAt var1 866)))
(assert (= "6" (CharAt var55 515)))
(assert (= "O" (CharAt var16 696)))
(assert (= "E" (CharAt var12 5)))
(assert (= "Q" (CharAt var33 450)))
(assert (= "h" (CharAt var9 173)))
(assert (= "5" (CharAt var33 898)))
(assert (= "b" (CharAt var16 400)))
(assert (= "Y" (CharAt var32 774)))
(assert (= "E" (CharAt var41 568)))
(assert (= "j" (CharAt var18 776)))
(assert (= "4" (CharAt var13 321)))
(assert (= "-" (CharAt var16 122)))
(assert (= "l" (CharAt var50 702)))
(assert (= "3" (CharAt var54 703)))
(assert (= "h" (CharAt var45 335)))
(assert (= "a" (CharAt var4 601)))
(assert (= "n" (CharAt var46 270)))
(assert (= "i" (CharAt var20 494)))
(assert (= "h" (CharAt var53 384)))
(assert (= "W" (CharAt var59 513)))
(assert (= "4" (CharAt var17 898)))
(assert (= "+" (CharAt var19 728)))
(assert (= "l" (CharAt var55 252)))
(assert (= "2" (CharAt var26 471)))
(assert (= "g" (CharAt var24 291)))
(assert (= "t" (CharAt var42 208)))
(assert (= "l" (CharAt var46 381)))
(assert (= "]" (CharAt var48 738)))
(assert (= "C" (CharAt var11 203)))
(assert (= "n" (CharAt var49 122)))
(assert (= "O" (CharAt var34 300)))
(assert (= "C" (CharAt var41 639)))
(assert (= "!" (CharAt var8 593)))
(assert (= ")" (CharAt var39 39)))
(assert (= "C" (CharAt var8 586)))
(assert (= ">" (CharAt var38 881)))
(assert (= "=" (CharAt var51 928)))
(assert (= "0" (CharAt var60 570)))
(assert (= "|" (CharAt var12 92)))
(assert (= "d" (CharAt var57 194)))
(assert (= ";" (CharAt var35 452)))
(assert (= "i" (CharAt var47 477)))
(assert (= "w" (CharAt var54 11)))
(assert (= "]" (CharAt var4 494)))
(assert (= "2" (CharAt var0 935)))
(assert (= "p" (CharAt var59 724)))
(assert (= "|" (CharAt var13 17)))
(assert (= ">" (CharAt var16 493)))
(assert (= ">" (CharAt var48 440)))
(assert (= "N" (CharAt var44 407)))
(assert (= "$" (CharAt var24 397)))
(assert (= "'" (CharAt var17 390)))
(assert (= "v" (CharAt var46 209)))
(assert (= "[" (CharAt var18 782)))
(assert (= "." (CharAt var41 101)))
(assert (= "f" (CharAt var15 537)))
(assert (= "d" (CharAt var1 574)))
(assert (= "s" (CharAt var5 782)))
(assert (= "n" (CharAt var43 367)))
(assert (= "j" (CharAt var0 212)))
(assert (= "'" (CharAt var20 464)))
(assert (= "V" (CharAt var19 988)))
(assert (= "`" (CharAt var11 98)))
(assert (= "(" (CharAt var59 85)))
(assert (= "q" (CharAt var60 596)))
(assert (= "?" (CharAt var11 853)))
(assert (= "#" (CharAt var3 681)))
(assert (= "{" (CharAt var48 557)))
(assert (= "." (CharAt var55 157)))
(assert (= "/" (CharAt var60 634)))
(assert (= "f" (CharAt var38 270)))
(assert (= "n" (CharAt var25 725)))
(assert (= "h" (CharAt var14 338)))
(assert (= "~" (CharAt var24 3)))
(assert (= "," (CharAt var55 258)))
(assert (= "M" (CharAt var14 546)))
(assert (= "`" (CharAt var43 323)))
(assert (= "&" (CharAt var43 13)))
(assert (= "k" (CharAt var36 757)))
(assert (= "7" (CharAt var16 309)))
(assert (= "|" (CharAt var24 796)))
(assert (= "N" (CharAt var60 654)))
(assert (= "6" (CharAt var28 822)))
(assert (= "G" (CharAt var33 237)))
(assert (= "$" (CharAt var34 355)))
(assert (= "\\" (CharAt var43 382)))
(assert (= "z" (CharAt var39 975)))
(assert (= "4" (CharAt var50 303)))
(assert (= "H" (CharAt var30 421)))
(assert (= "=" (CharAt var13 853)))
(assert (= "l" (CharAt var42 656)))
(assert (= "2" (CharAt var11 962)))
(assert (= "o" (CharAt var6 448)))
(assert (= "r" (CharAt var3 786)))
(assert (= "0" (CharAt var21 222)))
(assert (= "e" (CharAt var59 811)))
(assert (= "0" (CharAt var4 982)))
(assert (= "F" (CharAt var21 84)))
(assert (= ":" (CharAt var36 287)))
(assert (= "Z" (CharAt var29 366)))
(assert (= "9" (CharAt var49 237)))
(assert (= "$" (CharAt var3 566)))
(assert (= "~" (CharAt var26 161)))
(assert (= "a" (CharAt var7 320)))
(assert (= "B" (CharAt var29 219)))
(assert (= "o" (CharAt var17 266)))
(assert (= "s" (CharAt var28 710)))
(assert (= "}" (CharAt var0 286)))
(assert (= "f" (CharAt var40 564)))
(assert (= "x" (CharAt var57 390)))
(assert (= "@" (CharAt var52 521)))
(assert (= "4" (CharAt var30 701)))
(assert (= "S" (CharAt var21 725)))
(assert (= "D" (CharAt var7 395)))
(assert (= "<" (CharAt var2 396)))
(assert (= "N" (CharAt var49 36)))
(assert (= "u" (CharAt var32 573)))
(assert (= "C" (CharAt var60 64)))
(assert (= "7" (CharAt var60 197)))
(assert (= "6" (CharAt var32 977)))
(assert (= "&" (CharAt var2 77)))
(assert (= "h" (CharAt var22 60)))
(assert (= "h" (CharAt var33 405)))
(assert (= "[" (CharAt var41 464)))
(assert (= "A" (CharAt var34 850)))
(assert (= "U" (CharAt var35 796)))
(assert (= "t" (CharAt var24 981)))
(assert (= "S" (CharAt var57 950)))
(assert (= "H" (CharAt var38 606)))
(assert (= "'" (CharAt var19 544)))
(assert (= "r" (CharAt var17 825)))
(assert (= "W" (CharAt var28 309)))
(assert (= "q" (CharAt var54 63)))
(assert (= "a" (CharAt var26 121)))
(assert (= "y" (CharAt var49 34)))
(assert (= "K" (CharAt var20 738)))
(assert (= "%" (CharAt var32 132)))
(assert (= "Y" (CharAt var59 778)))
(assert (= "3" (CharAt var50 620)))
(assert (= "=" (CharAt var26 229)))
(assert (= "x" (CharAt var42 738)))
(assert (= "F" (CharAt var49 81)))
(assert (= "`" (CharAt var12 706)))
(assert (= "F" (CharAt var60 406)))
(assert (= "r" (CharAt var11 971)))
(assert (= "Y" (CharAt var47 243)))
(assert (= "q" (CharAt var48 632)))
(assert (= "@" (CharAt var22 438)))
(assert (= "k" (CharAt var5 704)))
(assert (= "h" (CharAt var0 318)))
(assert (= "a" (CharAt var44 74)))
(assert (= "n" (CharAt var46 396)))
(assert (= "3" (CharAt var14 171)))
(assert (= ">" (CharAt var17 296)))
(assert (= "," (CharAt var50 748)))
(assert (= "J" (CharAt var46 556)))
(assert (= "n" (CharAt var9 285)))
(assert (= "B" (CharAt var54 235)))
(assert (= "h" (CharAt var40 908)))
(assert (= "q" (CharAt var15 643)))
(assert (= "d" (CharAt var54 612)))
(assert (= "$" (CharAt var40 981)))
(assert (= "H" (CharAt var8 902)))
(assert (= "i" (CharAt var46 398)))
(assert (= "s" (CharAt var9 519)))
(assert (= ")" (CharAt var14 709)))
(assert (= "s" (CharAt var30 96)))
(assert (= ")" (CharAt var35 264)))
(assert (= "1" (CharAt var57 406)))
(assert (= "D" (CharAt var37 760)))
(assert (= "2" (CharAt var14 731)))
(assert (= "K" (CharAt var36 589)))
(assert (= "g" (CharAt var19 37)))
(assert (= "`" (CharAt var7 271)))
(assert (= "l" (CharAt var19 642)))
(assert (= "T" (CharAt var4 428)))
(assert (= "t" (CharAt var57 787)))
(assert (= "," (CharAt var52 503)))
(assert (= "L" (CharAt var8 101)))
(assert (= "$" (CharAt var14 216)))
(assert (= "q" (CharAt var3 860)))
(assert (= "l" (CharAt var48 43)))
(assert (= "d" (CharAt var60 996)))
(assert (= "\"" (CharAt var32 709)))
(assert (= "z" (CharAt var52 377)))
(assert (= "x" (CharAt var40 664)))
(assert (= "H" (CharAt var3 794)))
(assert (= "#" (CharAt var30 965)))
(assert (= "0" (CharAt var55 411)))
(assert (= "K" (CharAt var17 50)))
(assert (= "'" (CharAt var31 773)))
(assert (= "K" (CharAt var32 556)))
(assert (= "5" (CharAt var29 402)))
(assert (= "J" (CharAt var48 636)))
(assert (= "." (CharAt var52 437)))
(assert (= "P" (CharAt var10 855)))
(assert (= "M" (CharAt var5 42)))
(assert (= "I" (CharAt var26 391)))
(assert (= "S" (CharAt var6 948)))
(assert (= "/" (CharAt var33 631)))
(assert (= "S" (CharAt var47 260)))
(assert (= "," (CharAt var35 451)))
(assert (= "\\" (CharAt var3 707)))
(assert (= "V" (CharAt var42 373)))
(assert (= "b" (CharAt var51 231)))
(assert (= "X" (CharAt var33 538)))
(assert (= "y" (CharAt var34 170)))
(assert (= "f" (CharAt var14 979)))
(assert (= "W" (CharAt var49 156)))
(assert (= "Z" (CharAt var47 7)))
(assert (= "'" (CharAt var20 69)))
(assert (= "M" (CharAt var40 224)))
(assert (= "i" (CharAt var25 887)))
(assert (= "$" (CharAt var24 23)))
(assert (= "I" (CharAt var51 413)))
(assert (= "f" (CharAt var46 639)))
(assert (= "a" (CharAt var20 6)))
(assert (= "#" (CharAt var43 541)))
(assert (= ";" (CharAt var48 556)))
(assert (= "<" (CharAt var24 779)))
(assert (= ")" (CharAt var38 370)))
(assert (= "t" (CharAt var57 858)))
(assert (= "B" (CharAt var49 664)))
(assert (= "@" (CharAt var6 123)))
(assert (= "." (CharAt var46 595)))
(assert (= "H" (CharAt var50 775)))
(assert (= "u" (CharAt var55 185)))
(assert (= "D" (CharAt var44 426)))
(assert (= "u" (CharAt var9 627)))
(assert (= "k" (CharAt var60 664)))
(assert (= "G" (CharAt var44 512)))
(assert (= "h" (CharAt var57 833)))
(assert (= "y" (CharAt var9 820)))
(assert (= "M" (CharAt var9 821)))
(assert (= "#" (CharAt var22 694)))
(assert (= "9" (CharAt var42 521)))
(assert (= "Q" (CharAt var16 551)))
(assert (= "C" (CharAt var49 443)))
(assert (= "{" (CharAt var45 943)))
(assert (= "*" (CharAt var6 871)))
(assert (= "\"" (CharAt var45 179)))
(assert (= "e" (CharAt var49 93)))
(assert (= "p" (CharAt var47 669)))
(assert (= "-" (CharAt var46 792)))
(assert (= "k" (CharAt var42 127)))
(assert (= "G" (CharAt var19 384)))
(assert (= "E" (CharAt var7 553)))
(assert (= "(" (CharAt var0 310)))
(assert (= "Z" (CharAt var26 422)))
(assert (= "M" (CharAt var38 101)))
(assert (= "~" (CharAt var18 365)))
(assert (= "A" (CharAt var23 28)))
(assert (= "'" (CharAt var3 641)))
(assert (= "S" (CharAt var44 724)))
(assert (= "7" (CharAt var57 423)))
(assert (= "L" (CharAt var9 124)))
(assert (= "m" (CharAt var10 869)))
(assert (= "c" (CharAt var36 260)))
(assert (= "p" (CharAt var16 15)))
(assert (= "A" (CharAt var56 995)))
(assert (= "T" (CharAt var49 22)))
(assert (= "g" (CharAt var31 93)))
(assert (= "z" (CharAt var4 768)))
(assert (= "|" (CharAt var60 779)))
(assert (= "}" (CharAt var20 641)))
(assert (= "s" (CharAt var19 811)))
(assert (= "L" (CharAt var46 149)))
(assert (= "A" (CharAt var28 126)))
(assert (= "_" (CharAt var56 925)))
(assert (= "o" (CharAt var29 239)))
(assert (= "n" (CharAt var44 936)))
(assert (= "N" (CharAt var3 247)))
(assert (= "?" (CharAt var37 309)))
(assert (= "y" (CharAt var23 72)))
(assert (= "2" (CharAt var55 681)))
(assert (= "E" (CharAt var3 500)))
(assert (= "V" (CharAt var40 550)))
(assert (= "p" (CharAt var6 232)))
(assert (= "I" (CharAt var22 85)))
(assert (= "p" (CharAt var52 189)))
(assert (= "q" (CharAt var26 458)))
(assert (= "/" (CharAt var12 716)))
(assert (= "~" (CharAt var33 480)))
(assert (= "|" (CharAt var41 301)))
(assert (= "z" (CharAt var59 637)))
(assert (= "8" (CharAt var23 947)))
(assert (= "9" (CharAt var6 58)))
(assert (= "j" (CharAt var8 24)))
(assert (= "`" (CharAt var46 348)))
(assert (= "I" (CharAt var24 221)))
(assert (= "M" (CharAt var0 113)))
(assert (= "8" (CharAt var19 855)))
(assert (= "]" (CharAt var25 373)))
(assert (= "H" (CharAt var19 306)))
(assert (= "9" (CharAt var7 615)))
(assert (= "p" (CharAt var12 787)))
(assert (= "Z" (CharAt var22 118)))
(assert (= "^" (CharAt var36 861)))
(assert (= ":" (CharAt var29 414)))
(assert (= "<" (CharAt var37 603)))
(assert (= "M" (CharAt var20 648)))
(assert (= "8" (CharAt var40 110)))
(assert (= "<" (CharAt var0 22)))
(assert (= "r" (CharAt var18 205)))
(assert (= ":" (CharAt var27 138)))
(assert (= "j" (CharAt var35 918)))
(assert (= "K" (CharAt var39 200)))
(assert (= "^" (CharAt var21 935)))
(assert (= "@" (CharAt var35 223)))
(assert (= "o" (CharAt var5 923)))
(assert (= "A" (CharAt var45 270)))
(assert (= "J" (CharAt var6 398)))
(assert (= "m" (CharAt var2 45)))
(assert (= "\"" (CharAt var53 553)))
(assert (= "L" (CharAt var42 17)))
(assert (= "A" (CharAt var54 82)))
(assert (= "1" (CharAt var50 499)))
(assert (= "i" (CharAt var51 622)))
(assert (= "n" (CharAt var14 184)))
(assert (= "R" (CharAt var43 111)))
(assert (= "+" (CharAt var24 128)))
(assert (= "D" (CharAt var47 256)))
(assert (= "'" (CharAt var10 898)))
(assert (= "O" (CharAt var36 429)))
(assert (= "w" (CharAt var60 606)))
(assert (= "U" (CharAt var3 592)))
(assert (= "L" (CharAt var22 997)))
(assert (= "+" (CharAt var49 66)))
(assert (= "2" (CharAt var0 803)))
(assert (= "@" (CharAt var10 395)))
(assert (= "_" (CharAt var34 981)))
(assert (= "<" (CharAt var18 399)))
(assert (= ">" (CharAt var18 138)))
(assert (= "~" (CharAt var12 840)))
(assert (= "k" (CharAt var53 175)))
(assert (= "[" (CharAt var22 667)))
(assert (= "p" (CharAt var52 372)))
(assert (= "K" (CharAt var56 543)))
(assert (= "&" (CharAt var9 637)))
(assert (= "C" (CharAt var59 557)))
(assert (= "3" (CharAt var60 189)))
(assert (= "[" (CharAt var6 552)))
(assert (= "W" (CharAt var42 426)))
(assert (= "\"" (CharAt var56 86)))
(assert (= "r" (CharAt var20 768)))
(assert (= "U" (CharAt var47 743)))
(assert (= "?" (CharAt var5 627)))
(assert (= "6" (CharAt var28 996)))
(assert (= "p" (CharAt var41 655)))
(assert (= "M" (CharAt var36 123)))
(assert (= "D" (CharAt var36 747)))
(assert (= "j" (CharAt var36 723)))
(assert (= "<" (CharAt var0 453)))
(assert (= "$" (CharAt var50 808)))
(assert (= "+" (CharAt var6 560)))
(assert (= "%" (CharAt var28 942)))
(assert (= "c" (CharAt var42 545)))
(assert (= "!" (CharAt var39 613)))
(assert (= "v" (CharAt var54 352)))
(assert (= "(" (CharAt var44 772)))
(assert (= "R" (CharAt var43 16)))
(assert (= "\\" (CharAt var46 534)))
(assert (= "A" (CharAt var1 461)))
(assert (= "9" (CharAt var21 242)))
(assert (= "*" (CharAt var57 852)))
(assert (= "7" (CharAt var47 770)))
(assert (= "'" (CharAt var26 88)))
(assert (= "`" (CharAt var20 232)))
(assert (= "`" (CharAt var0 112)))
(assert (= "2" (CharAt var8 318)))
(assert (= "'" (CharAt var59 903)))
(assert (= "+" (CharAt var28 510)))
(assert (= "\\" (CharAt var35 996)))
(assert (= "r" (CharAt var40 793)))
(assert (= "a" (CharAt var43 9)))
(assert (= "J" (CharAt var39 925)))
(assert (= ">" (CharAt var15 786)))
(assert (= "*" (CharAt var35 680)))
(assert (= "B" (CharAt var47 610)))
(assert (= "I" (CharAt var54 988)))
(assert (= "{" (CharAt var27 583)))
(assert (= "v" (CharAt var9 213)))
(assert (= "n" (CharAt var17 578)))
(assert (= "T" (CharAt var20 190)))
(assert (= "&" (CharAt var36 737)))
(assert (= "'" (CharAt var40 798)))
(assert (= ")" (CharAt var46 305)))
(assert (= "k" (CharAt var40 275)))
(assert (= "]" (CharAt var9 347)))
(assert (= ">" (CharAt var56 337)))
(assert (= "7" (CharAt var36 733)))
(assert (= "N" (CharAt var36 983)))
(assert (= "&" (CharAt var14 154)))
(assert (= "*" (CharAt var31 198)))
(assert (= "4" (CharAt var47 397)))
(assert (= "o" (CharAt var9 822)))
(assert (= "u" (CharAt var42 778)))
(assert (= "I" (CharAt var56 253)))
(assert (= "7" (CharAt var32 147)))
(assert (= "Y" (CharAt var39 220)))
(assert (= "~" (CharAt var20 928)))
(assert (= "4" (CharAt var38 112)))
(assert (= "," (CharAt var57 945)))
(assert (= "]" (CharAt var19 380)))
(assert (= "x" (CharAt var18 504)))
(assert (= "a" (CharAt var3 933)))
(assert (= ":" (CharAt var51 84)))
(assert (= "F" (CharAt var60 438)))
(assert (= "C" (CharAt var29 18)))
(assert (= "{" (CharAt var37 455)))
(assert (= "q" (CharAt var22 509)))
(assert (= "S" (CharAt var49 446)))
(assert (= ";" (CharAt var60 411)))
(assert (= "p" (CharAt var14 22)))
(assert (= "?" (CharAt var46 77)))
(assert (= "'" (CharAt var27 111)))
(assert (= "G" (CharAt var47 263)))
(assert (= "y" (CharAt var27 371)))
(assert (= "t" (CharAt var23 237)))
(assert (= "$" (CharAt var48 549)))
(assert (= "V" (CharAt var55 311)))
(assert (= "u" (CharAt var37 236)))
(assert (= "=" (CharAt var37 168)))
(assert (= "G" (CharAt var48 260)))
(assert (= "!" (CharAt var2 668)))
(assert (= "o" (CharAt var51 206)))
(assert (= "?" (CharAt var53 733)))
(assert (= "q" (CharAt var57 987)))
(assert (= ":" (CharAt var15 129)))
(assert (= "0" (CharAt var45 690)))
(assert (= "b" (CharAt var28 177)))
(assert (= "%" (CharAt var19 211)))
(assert (= "$" (CharAt var42 29)))
(assert (= "Z" (CharAt var38 479)))
(assert (= "5" (CharAt var36 394)))
(assert (= "1" (CharAt var56 340)))
(assert (= "3" (CharAt var51 153)))
(assert (= "R" (CharAt var54 896)))
(assert (= "S" (CharAt var1 49)))
(assert (= "n" (CharAt var23 690)))
(assert (= "=" (CharAt var4 495)))
(assert (= "<" (CharAt var41 439)))
(assert (= "w" (CharAt var54 112)))
(assert (= "0" (CharAt var55 806)))
(assert (= "F" (CharAt var15 154)))
(assert (= "*" (CharAt var13 156)))
(assert (= "n" (CharAt var43 983)))
(assert (= "j" (CharAt var60 109)))
(assert (= "k" (CharAt var46 875)))
(assert (= "l" (CharAt var46 511)))
(assert (= "\"" (CharAt var37 512)))
(assert (= "/" (CharAt var14 444)))
(assert (= "t" (CharAt var26 324)))
(assert (= "H" (CharAt var37 685)))
(assert (= "P" (CharAt var35 265)))
(assert (= "H" (CharAt var44 872)))
(assert (= "b" (CharAt var43 653)))
(assert (= "N" (CharAt var19 676)))
(assert (= ")" (CharAt var28 314)))
(assert (= "k" (CharAt var40 620)))
(assert (= "v" (CharAt var32 402)))
(assert (= "s" (CharAt var1 553)))
(assert (= "&" (CharAt var44 977)))
(assert (= "W" (CharAt var5 633)))
(assert (= "m" (CharAt var13 995)))
(assert (= "8" (CharAt var3 756)))
(assert (= "," (CharAt var12 846)))
(assert (= "x" (CharAt var15 544)))
(assert (= "u" (CharAt var53 772)))
(assert (= "x" (CharAt var24 430)))
(assert (= "6" (CharAt var60 477)))
(assert (= "o" (CharAt var28 376)))
(assert (= "A" (CharAt var51 379)))
(assert (= "j" (CharAt var20 206)))
(assert (= "a" (CharAt var53 369)))
(assert (= "i" (CharAt var23 37)))
(assert (= "L" (CharAt var43 233)))
(assert (= "4" (CharAt var19 865)))
(assert (= "c" (CharAt var37 821)))
(assert (= "Y" (CharAt var51 191)))
(assert (= "3" (CharAt var48 126)))
(assert (= "O" (CharAt var32 62)))
(assert (= "$" (CharAt var54 407)))
(assert (= "D" (CharAt var22 161)))
(assert (= "u" (CharAt var54 129)))
(assert (= "L" (CharAt var9 903)))
(assert (= "3" (CharAt var40 698)))
(assert (= "C" (CharAt var49 668)))
(assert (= "1" (CharAt var54 191)))
(assert (= "f" (CharAt var44 692)))
(assert (= "t" (CharAt var22 459)))
(assert (= "I" (CharAt var6 267)))
(assert (= "I" (CharAt var2 759)))
(assert (= ":" (CharAt var44 397)))
(assert (= "j" (CharAt var12 303)))
(assert (= "{" (CharAt var34 231)))
(assert (= "}" (CharAt var46 358)))
(assert (= "t" (CharAt var55 943)))
(assert (= "2" (CharAt var18 408)))
(assert (= "f" (CharAt var45 366)))
(assert (= "H" (CharAt var25 125)))
(assert (= "[" (CharAt var43 866)))
(assert (= "V" (CharAt var16 486)))
(assert (= "v" (CharAt var28 615)))
(assert (= "-" (CharAt var4 812)))
(assert (= "Z" (CharAt var1 411)))
(assert (= "4" (CharAt var24 394)))
(assert (= "q" (CharAt var12 462)))
(assert (= "\"" (CharAt var32 655)))
(assert (= "^" (CharAt var43 41)))
(assert (= "u" (CharAt var33 100)))
(assert (= "m" (CharAt var10 120)))
(assert (= "o" (CharAt var31 569)))
(assert (= "z" (CharAt var24 13)))
(assert (= "X" (CharAt var21 419)))
(assert (= "'" (CharAt var42 902)))
(assert (= "3" (CharAt var51 459)))
(assert (= "k" (CharAt var55 676)))
(assert (= "`" (CharAt var60 723)))
(assert (= "S" (CharAt var28 68)))
(assert (= "9" (CharAt var10 650)))
(assert (= "T" (CharAt var4 546)))
(assert (= "u" (CharAt var12 421)))
(assert (= "@" (CharAt var9 407)))
(assert (= ">" (CharAt var38 565)))
(assert (= "p" (CharAt var5 215)))
(assert (= "3" (CharAt var6 335)))
(assert (= "&" (CharAt var58 290)))
(assert (= "z" (CharAt var36 645)))
(assert (= "%" (CharAt var8 458)))
(assert (= "0" (CharAt var60 167)))
(assert (= "'" (CharAt var26 167)))
(assert (= "&" (CharAt var39 612)))
(assert (= "^" (CharAt var30 377)))
(assert (= "N" (CharAt var6 608)))
(assert (= "z" (CharAt var24 649)))
(assert (= "%" (CharAt var0 245)))
(assert (= ";" (CharAt var43 526)))
(assert (= "+" (CharAt var7 136)))
(assert (= "P" (CharAt var40 133)))
(assert (= "y" (CharAt var43 443)))
(assert (= ">" (CharAt var10 379)))
(assert (= "L" (CharAt var22 552)))
(assert (= "z" (CharAt var41 492)))
(assert (= "o" (CharAt var24 426)))
(assert (= "*" (CharAt var24 621)))
(assert (= "q" (CharAt var8 263)))
(assert (= "X" (CharAt var24 808)))
(assert (= "U" (CharAt var59 812)))
(assert (= "?" (CharAt var2 867)))
(assert (= "/" (CharAt var31 219)))
(assert (= "M" (CharAt var50 641)))
(assert (= "-" (CharAt var17 358)))
(assert (= "t" (CharAt var41 468)))
(assert (= "." (CharAt var15 476)))
(assert (= "7" (CharAt var37 438)))
(assert (= "W" (CharAt var42 994)))
(assert (= "s" (CharAt var13 758)))
(assert (= "l" (CharAt var17 926)))
(assert (= "/" (CharAt var32 13)))
(assert (= "J" (CharAt var2 69)))
(assert (= "k" (CharAt var0 211)))
(assert (= "v" (CharAt var60 62)))
(assert (= "G" (CharAt var10 948)))
(assert (= ":" (CharAt var2 942)))
(assert (= "c" (CharAt var45 310)))
(assert (= "a" (CharAt var48 64)))
(assert (= "b" (CharAt var36 452)))
(assert (= "a" (CharAt var8 630)))
(assert (= "-" (CharAt var57 149)))
(assert (= "C" (CharAt var22 756)))
(assert (= "!" (CharAt var16 504)))
(assert (= "F" (CharAt var14 700)))
(assert (= ")" (CharAt var4 786)))
(assert (= "C" (CharAt var3 842)))
(assert (= "g" (CharAt var31 134)))
(assert (= "x" (CharAt var15 550)))
(assert (= "[" (CharAt var52 718)))
(assert (= "O" (CharAt var24 315)))
(assert (= "&" (CharAt var43 581)))
(assert (= "}" (CharAt var13 978)))
(assert (= "w" (CharAt var27 96)))
(assert (= "d" (CharAt var1 413)))
(assert (= "m" (CharAt var55 950)))
(assert (= "L" (CharAt var19 940)))
(assert (= "W" (CharAt var4 580)))
(assert (= "h" (CharAt var1 81)))
(assert (= "o" (CharAt var37 230)))
(assert (= "i" (CharAt var26 275)))
(assert (= "v" (CharAt var54 64)))
(assert (= "S" (CharAt var35 78)))
(assert (= "w" (CharAt var52 201)))
(assert (= "F" (CharAt var10 176)))
(assert (= "^" (CharAt var49 596)))
(assert (= "d" (CharAt var10 139)))
(assert (= "n" (CharAt var8 893)))
(assert (= "m" (CharAt var52 509)))
(assert (= "T" (CharAt var53 888)))
(assert (= ";" (CharAt var52 329)))
(assert (= "S" (CharAt var1 470)))
(assert (= "~" (CharAt var31 270)))
(assert (= "@" (CharAt var0 135)))
(assert (= "k" (CharAt var2 568)))
(assert (= "\\" (CharAt var29 642)))
(assert (= "e" (CharAt var21 827)))
(assert (= "N" (CharAt var16 383)))
(assert (= "f" (CharAt var20 519)))
(assert (= "l" (CharAt var13 544)))
(assert (= "," (CharAt var26 601)))
(assert (= "@" (CharAt var12 70)))
(assert (= "&" (CharAt var11 344)))
(assert (= "\\" (CharAt var8 673)))
(assert (= "1" (CharAt var26 286)))
(assert (= "\"" (CharAt var6 995)))
(assert (= "(" (CharAt var60 658)))
(assert (= "~" (CharAt var44 81)))
(assert (= "W" (CharAt var34 296)))
(assert (= "q" (CharAt var11 179)))
(assert (= "6" (CharAt var29 185)))
(assert (= "m" (CharAt var36 454)))
(assert (= "W" (CharAt var7 883)))
(assert (= "y" (CharAt var29 603)))
(assert (= "w" (CharAt var12 996)))
(assert (= "v" (CharAt var12 406)))
(assert (= "F" (CharAt var53 301)))
(assert (= "3" (CharAt var33 613)))
(assert (= "^" (CharAt var52 262)))
(assert (= "h" (CharAt var33 779)))
(assert (= "m" (CharAt var24 434)))
(assert (= "D" (CharAt var33 539)))
(assert (= "n" (CharAt var10 172)))
(assert (= "s" (CharAt var11 353)))
(assert (= "j" (CharAt var14 922)))
(assert (= "%" (CharAt var60 450)))
(assert (= ":" (CharAt var52 112)))
(assert (= "p" (CharAt var38 543)))
(assert (= "9" (CharAt var2 595)))
(assert (= "H" (CharAt var15 48)))
(assert (= "W" (CharAt var27 48)))
(assert (= "R" (CharAt var47 879)))
(assert (= "4" (CharAt var31 601)))
(assert (= "?" (CharAt var30 828)))
(assert (= "0" (CharAt var28 303)))
(assert (= "{" (CharAt var19 807)))
(assert (= "k" (CharAt var25 420)))
(assert (= "k" (CharAt var19 167)))
(assert (= "$" (CharAt var20 724)))
(assert (= "a" (CharAt var39 273)))
(assert (= ":" (CharAt var10 98)))
(assert (= "L" (CharAt var0 408)))
(assert (= "-" (CharAt var35 105)))
(assert (= "s" (CharAt var45 888)))
(assert (= "}" (CharAt var36 693)))
(assert (= "t" (CharAt var38 501)))
(assert (= "+" (CharAt var60 141)))
(assert (= "R" (CharAt var3 387)))
(assert (= "," (CharAt var14 867)))
(assert (= "|" (CharAt var28 874)))
(assert (= "a" (CharAt var42 630)))
(assert (= "n" (CharAt var7 221)))
(assert (= "P" (CharAt var44 124)))
(assert (= "5" (CharAt var58 10)))
(assert (= "r" (CharAt var48 135)))
(assert (= "9" (CharAt var55 333)))
(assert (= "w" (CharAt var10 209)))
(assert (= "'" (CharAt var26 970)))
(assert (= "/" (CharAt var10 976)))
(assert (= "(" (CharAt var27 966)))
(assert (= "a" (CharAt var35 197)))
(assert (= "d" (CharAt var25 274)))
(assert (= "U" (CharAt var6 178)))
(assert (= "." (CharAt var23 713)))
(assert (= "D" (CharAt var48 138)))
(assert (= "x" (CharAt var16 367)))
(assert (= "B" (CharAt var57 634)))
(assert (= "N" (CharAt var54 680)))
(assert (= "C" (CharAt var14 325)))
(assert (= "e" (CharAt var16 329)))
(assert (= "U" (CharAt var48 683)))
(assert (= "Y" (CharAt var24 425)))
(assert (= "'" (CharAt var27 332)))
(assert (= "u" (CharAt var60 320)))
(assert (= "w" (CharAt var59 139)))
(assert (= "g" (CharAt var57 911)))
(assert (= "Z" (CharAt var54 436)))
(assert (= "n" (CharAt var56 152)))
(assert (= "m" (CharAt var50 460)))
(assert (= "$" (CharAt var13 896)))
(assert (= "m" (CharAt var26 978)))
(assert (= ")" (CharAt var17 902)))
(assert (= "T" (CharAt var23 390)))
(assert (= "_" (CharAt var4 689)))
(assert (= "+" (CharAt var40 759)))
(assert (= "#" (CharAt var56 78)))
(assert (= "%" (CharAt var58 382)))
(assert (= "V" (CharAt var41 198)))
(assert (= "b" (CharAt var37 752)))
(assert (= "5" (CharAt var29 50)))
(assert (= "T" (CharAt var34 98)))
(assert (= "j" (CharAt var38 409)))
(assert (= "M" (CharAt var24 975)))
(assert (= "V" (CharAt var16 805)))
(assert (= "f" (CharAt var44 597)))
(assert (= "l" (CharAt var43 562)))
(assert (= ">" (CharAt var56 769)))
(assert (= "I" (CharAt var12 80)))
(assert (= "E" (CharAt var17 424)))
(assert (= "~" (CharAt var13 235)))
(assert (= ":" (CharAt var46 54)))
(assert (= "2" (CharAt var29 889)))
(assert (= "3" (CharAt var18 663)))
(assert (= "b" (CharAt var43 138)))
(assert (= ">" (CharAt var53 32)))
(assert (= "S" (CharAt var9 692)))
(assert (= ";" (CharAt var17 651)))
(assert (= "Z" (CharAt var6 493)))
(assert (= ":" (CharAt var47 539)))
(assert (= "i" (CharAt var1 184)))
(assert (= "d" (CharAt var39 70)))
(assert (= "t" (CharAt var4 830)))
(assert (= ")" (CharAt var13 574)))
(assert (= "$" (CharAt var13 494)))
(assert (= "7" (CharAt var45 569)))
(assert (= "J" (CharAt var15 181)))
(assert (= "k" (CharAt var34 161)))
(assert (= "*" (CharAt var3 317)))
(assert (= "o" (CharAt var34 237)))
(assert (= "3" (CharAt var15 645)))
(assert (= "Z" (CharAt var59 315)))
(assert (= ":" (CharAt var15 85)))
(assert (= "E" (CharAt var57 206)))
(assert (= "R" (CharAt var30 83)))
(assert (= "%" (CharAt var39 696)))
(assert (= ":" (CharAt var31 948)))
(assert (= "e" (CharAt var25 397)))
(assert (= "N" (CharAt var15 284)))
(assert (= ">" (CharAt var48 319)))
(assert (= "*" (CharAt var6 603)))
(assert (= "i" (CharAt var23 282)))
(assert (= "t" (CharAt var34 720)))
(assert (= "h" (CharAt var12 735)))
(assert (= "N" (CharAt var3 801)))
(assert (= "x" (CharAt var38 816)))
(assert (= "u" (CharAt var49 338)))
(assert (= "E" (CharAt var2 979)))
(assert (= "-" (CharAt var46 330)))
(assert (= "A" (CharAt var11 558)))
(assert (= "m" (CharAt var18 746)))
(assert (= "g" (CharAt var30 803)))
(assert (= "^" (CharAt var59 963)))
(assert (= "x" (CharAt var53 680)))
(assert (= "W" (CharAt var2 608)))
(assert (= "b" (CharAt var25 116)))
(assert (= "\\" (CharAt var55 567)))
(assert (= "!" (CharAt var16 489)))
(assert (= "6" (CharAt var50 472)))
(assert (= "4" (CharAt var24 984)))
(assert (= "y" (CharAt var4 70)))
(assert (= "W" (CharAt var21 37)))
(assert (= "G" (CharAt var13 797)))
(assert (= "g" (CharAt var6 577)))
(assert (= "W" (CharAt var38 85)))
(assert (= "^" (CharAt var32 697)))
(assert (= "`" (CharAt var60 784)))
(assert (= "y" (CharAt var16 674)))
(assert (= "t" (CharAt var30 592)))
(assert (= "\"" (CharAt var27 361)))
(assert (= "x" (CharAt var32 913)))
(assert (= "Q" (CharAt var28 861)))
(check-sat)
(get-model)